10
Lattice="2.992264747619629 0.0 0.6524603366851807 0.155113681154688 4.799415917217022 -0.6203704476356506 0.0 0.0 7.099585056304932" Properties=species:S:1:pos:R:3 pbc="T T T"
Li       2.87292864       1.00150738       7.35563881
Li       0.17477474       3.61571874       5.41536443
Li       1.24374436       4.28068661       0.58765562
Li       1.79246430       1.40158147       5.13374287
Li       0.86821052       2.96417631       2.28242632
Li       2.02398816       3.52648571       4.13334221
O        0.46129358       2.28331382       4.06230586
Li       0.66045700       0.61120928       3.11254647
O        1.64234846       4.76308735       5.86921045
O        2.43660176       4.25884993       2.26735074
20
Lattice="4.787059783935547 0.0 0.011109458282589912 -0.004591727351602582 4.5836630710388295 -1.3635586500167847 0.0 0.0 8.248696327209473" Properties=species:S:1:pos:R:3 pbc="T T T"
Li       0.36242441       3.85221035       2.96241188
Li       0.35935004       2.22230157       5.86178501
Li       2.75676282       1.55800983       3.65181132
Li       2.75810103       3.19064823       0.75324094
Li       0.35506166       4.51333424       5.17938715
Li       2.75192317       4.51185100       5.17825194
O        3.95174618       0.08428456       2.89862151
Li       2.75161104       2.22065959       5.86102952
O        1.55238101       3.62212474       6.36075330
Li       0.36533911       0.90186542       1.43000570
Li       0.35946023       3.19221071       0.75485769
Li       0.35895835       1.56168311       3.64426207
O        1.55926701       2.38030545       2.21332368
Li       2.75011762       3.85187622       2.97143656
O        3.94933046       3.03637063       4.41270811
Li       2.75680246       0.89951290       1.43417020
O        1.55676164       0.74369358       5.08734085
O        1.55952064       4.08447534      -0.43117891
O        3.95303463       1.78966693       0.25991352
O        3.94928470       1.32949448       7.04242508
10
Lattice="3.1980080604553223 0.0 -0.014206473715603352 -1.6084870375057814 2.773247244524268 0.006081104278564453 0.0 0.0 10.515926361083984" Properties=species:S:1:pos:R:3 pbc="T T T"
Li       0.07942441       2.59716344       4.84377470
Li       0.07846242       2.59817969       0.06868701
Li       0.08808772       0.74728290       1.62078847
Li       0.08107170       0.74993445       6.56087656
Li       1.68927948       1.67037522       3.13789393
O        0.07624446       2.60061817       8.70823726
Li       1.67739249       1.67532954       8.32955705
O        0.09165979       0.74570372       3.63689312
O        1.67871371       1.67219218       6.20669769
O        1.68251859       1.67347489       1.00737476
6
Lattice="2.9863035678863525 0.0 -0.002139661693945527 -0.013039730364799456 3.9525522668388082 -0.002690159948542714 0.0 0.0 4.884825706481934" Properties=species:S:1:pos:R:3 pbc="T T T"
Li       2.28699453       1.82198240       2.22410417
Li       0.79038783       3.79806664       4.66633142
O        0.79989794       0.37284077       1.81406485
O        0.79083046       3.27173443       2.63222341
O        2.28948255       2.34701779       0.19540009
O        2.29124217       1.30103225       4.24947485
20
Lattice="4.815363883972168 0.0 0.008558102883398533 -0.03977491969655025 6.251259152016357 -3.5181500911712646 0.0 0.0 7.142496585845947" Properties=species:S:1:pos:R:3 pbc="T T T"
Li       4.04043173       0.72027080       2.72778670
Li       3.80134231       2.08847606       4.95575771
Li       4.31331261       5.12238094       0.59897464
Li       1.65311641       1.65489960       4.94464202
O        0.26594568       4.58723690       2.37910732
Li       4.29251707       0.11729926       6.01602032
Li       1.86405181       0.29704589       2.80482033
O        3.03630713       0.28617940       4.45245454
Li       1.38939068       3.01926564       2.74383526
Li       1.15668213       3.62127013      -1.10183042
Li       3.56262762       3.42651967       2.82443827
Li       1.77908427       5.32077175       1.59978320
Li       3.91522611       2.29139046       0.49651073
O        2.71026764       1.86652754       1.83810394
Li       3.62550419       4.67499857      -2.01589843
Li       1.09565147       4.86303099       4.14854989
O        2.41788899       3.44481006       4.48498095
O        0.31833759       5.39946722      -1.20172524
Li       1.52177596       1.45855774       0.48792739
O        0.31438206       1.87221814      -0.85434325
4
Lattice="3.0707173347473145 0.0 -0.05384070426225662 -1.5706785726636954 2.7565328292574773 -0.46134138107299805 0.0 0.0 4.011775493621826" Properties=species:S:1:pos:R:3 pbc="T T T"
Li       0.88007255       2.31857754       1.66919209
O       -0.64603905       1.21481008       1.18362551
Li       0.90859474       0.65507267      -0.11072151
O       -0.62690213       1.50771450       2.64269202
10
Lattice="4.389732360839844 0.0 2.414893865585327 1.5130371764767294 4.116714131466618 2.415510654449463 0.0 0.0 5.163053512573242" Properties=species:S:1:pos:R:3 pbc="T T T"
Li       1.55684244       3.16905467       3.14727541
O        4.72400523       3.58525654       4.11441846
Li       1.96004537       0.75418240       2.43628249
O        1.76911537       1.52700720       4.28448602
Li       1.80544045       2.81875544       5.72969774
Li       3.68704707       1.96046374       3.85856309
Li       4.27671765       1.11680560       6.43972303
Li       4.06314492       4.02673820       7.43322060
O        4.46804691       0.34455990       4.59950413
O        3.02897830       2.40214158       7.17915313
18
Lattice="4.709670543670654 0.0 -1.1900925636291504 -0.5934571748317414 4.822283708037738 -0.5484082102775574 0.0 0.0 7.423397541046143" Properties=species:S:1:pos:R:3 pbc="T T T"
Li       0.54346732       1.24462670       0.51478256
Li       3.37112548       4.13157325       3.17613951
Li       0.28563859       3.55812984       0.12952160
Li       2.81310738       1.23341964      -0.15261689
Li       2.61712796       3.60937899       0.20942195
Li       4.37294249       1.76494835       4.34431806
Li       1.83220123       1.25740471       4.93591805
O        2.00054233       0.25863290       1.45206704
Li       3.48735262       1.46877880       2.10475226
Li       1.14487403       1.68162066       2.71658910
Li       0.45848158       4.15058017       2.32684648
O        3.40491522       4.53323382      -1.40434664
O        4.27576857       2.53700652       0.55009864
O        3.46025331       0.38769913       5.41216146
O        0.32386739       0.55874198       4.06647151
Li       2.08704922       3.45044171       5.18076607
O        2.67907657       2.47841152       3.63460432
O        1.29808141       2.34285081       6.52517584
6
Lattice="3.4656522274017334 0.0 -1.1763345003128052 -0.4002675147728496 3.4392881143241434 -1.16982901096344 0.0 0.0 5.657749652862549" Properties=species:S:1:pos:R:3 pbc="T T T"
Li       0.03628436       0.00341116       3.91082448
Li       1.91427818       2.11108851       3.74794713
Li       2.53589718       0.85963189      -0.09157740
Li       0.94689184       2.96769064       0.92243883
O        1.94116534       0.19641151       3.82819475
O        2.50595574       2.77045512      -0.17223909
10
Lattice="4.384817123413086 0.0 2.422064781188965 1.5283590786437176 4.110669857379803 2.425931215286255 0.0 0.0 5.1788201332092285" Properties=species:S:1:pos:R:3 pbc="T T T"
Li       4.75613628       1.25140048       4.66133243
Li       0.96613978       0.39963971       4.83041857
Li       2.10130669       2.45025038       3.65418221
Li       2.68799531       1.60118734       6.24305332
Li       4.36783241       3.65491497       5.37383966
O        3.14046033       4.06645935       3.92740557
Li       4.60603288       3.30982455       7.96080193
O        1.45514511       2.89797465       6.97991020
O        4.56587460       2.01302108       6.51724756
O        2.88191476       0.83953219       4.39157575
15
Lattice="3.17753267288208 0.0 -0.003943359013646841 -0.003675399726147309 5.670633555453412 -1.3462389707565308 0.0 0.0 8.148148536682129" Properties=species:S:1:pos:R:3 pbc="T T T"
Li       0.94606565       0.56863162       3.70323433
Li       0.94515675       2.86758696       4.24589128
Li       0.94351628       5.35608594       5.47481160
Li       0.94628003       1.82064472       0.42190096
Li       2.53203844       3.86646716       2.73516469
Li       2.53406788       1.50384689       2.23250810
Li       0.94336694       4.12033874       0.85341723
Li       2.53582099       0.07044354       5.31314793
Li       2.53101535       5.52093407      -0.57385683
O        2.53167963       3.04200072       1.01757152
O        2.53353128       1.79612107       4.25112876
O        2.53705312       0.61290366       7.16075629
Li       2.53554284       2.16490337       6.22826027
O        0.94268846       4.66322097       3.56483699
O        0.94769173       0.33687131       1.76075919
20
Lattice="3.371112823486328 0.0 0.009276194497942924 -0.0015037243966846642 6.82654221185462 -2.3672351837158203 0.0 0.0 7.944435119628906" Properties=species:S:1:pos:R:3 pbc="T T T"
Li       1.62977417       2.72631240      -0.80409189
Li       3.31671792       1.01923150       6.63893320
Li       3.31314513       3.81954259       3.28263987
Li       3.31269527       5.87916324       0.01100332
Li       1.62802421       6.02538860       2.99248302
O        3.31619352       1.99142508       3.07913431
O        1.63062215       4.38633768       4.62498039
Li       1.62994573       2.28317859       4.15052222
Li       1.63010572       0.29347915       7.82659695
O        3.31344280       3.74891074      -0.43829207
O        1.63259087       1.19016405       5.93636445
Li       1.62913319       4.32174535       0.89302179
Li       3.31667463       3.26360383       5.56117969
Li       3.31437568       5.41758393       4.95639895
Li       3.31402030       0.43941490       4.14284132
Li       1.62948640       0.90256594       2.38065864
O        3.31417817       0.12590745       0.58636921
Li       1.62607486       4.90154028      -1.37193565
O        1.62668977       6.16602528       1.06773491
Li       3.31460520       2.13528354       1.15544864
6
Lattice="3.122047185897827 0.0 0.9286834597587585 1.413393663553506 2.7855094308736357 0.9196927547454834 0.0 0.0 5.690317153930664" Properties=species:S:1:pos:R:3 pbc="T T T"
Li       1.84700653       0.06139794       3.85782119
Li       2.98245668       0.75763445       5.72720342
Li       2.12818633       2.15034741       2.88006914
Li       0.99261216       1.45409806       1.00595828
O        3.54787400       1.10592200       3.83267199
O        2.69511072       2.49883527       6.67060185
16
Lattice="5.217607498168945 0.0 0.007097273133695126 0.726805127860743 5.804817841395785 2.7660646438598633 0.0 0.0 8.008089065551758" Properties=species:S:1:pos:R:3 pbc="T T T"
Li       3.00468904       5.75623612       7.44690511
Li       4.57738844       0.76314908       7.01115967
Li       3.21882420       0.51809408       2.00428488
Li       2.46376824       5.41158032      10.25474198
O        0.90378191       0.49243715       6.03158287
Li       1.66022337       2.21605194       6.54973007
Li       0.70222823       1.65664140       1.66001804
Li       1.71971337       4.90072625       5.50329368
Li       2.50317487       2.54652181       3.46504866
Li       0.25615265       1.24015186       4.36151803
Li       4.97612740       4.03152124       3.13783741
Li       1.06408871       4.50795305       8.16583802
O        1.69827851       0.91135565       3.06145516
Li       4.00581586       3.61621068       5.95618689
O        2.49187830       3.87359534       7.02309341
Li       3.43634088       3.17555985       8.50340275
10
Lattice="3.026643991470337 0.0 -0.0022612919565290213 -1.510529798705889 2.6181561444527963 -0.0008894230122677982 0.0 0.0 11.218634605407715" Properties=species:S:1:pos:R:3 pbc="T T T"
Li      -0.43562605       2.23046741       4.02490818
Li       1.07612245       1.36089012      10.82399544
O        1.07828787       1.35695895       4.78177635
Li      -0.43703523       2.23100642       8.50493467
O       -0.43819824       2.23256415       0.80692342
O        2.58891247       0.48794073       9.65938011
Li       2.58967205       0.48133792       6.32735798
Li       2.58725097       0.48622472       1.73613125
O        1.07698261       1.36030257       3.28555969
O        1.07754233       1.35431383       7.31755225
20
Lattice="4.712934970855713 0.0 0.00031329269404523075 0.008700970042841592 4.940782038133599 -0.0010586275020614266 0.0 0.0 8.304054260253906" Properties=species:S:1:pos:R:3 pbc="T T T"
Li       1.79501397       1.21161512       4.70741915
O        0.86776267       4.91412802       0.01247373
Li       4.15518301       1.21127880       2.97815175
Li       4.15650673       3.68106994       2.97796909
Li       4.16050809       3.67503253       0.55128582
Li       4.14523535       1.20650955       0.54062240
Li       1.80540037       3.67957951       4.69976729
Li       4.15411197       1.21403777       5.40866678
Li       1.78959315       1.20441121       7.13388057
Li       1.80640638       3.68169162       7.13409850
Li       4.15836093       3.68212835       5.41486645
O        0.37277060       2.44421584       1.79156694
O        3.22000033       2.44477921       4.15837874
Li       1.79905029       1.20804018       1.25691500
O        0.86361616       2.44658475       5.94287893
O        3.22583161       4.91602485       1.79067469
O        2.73612623       2.44600106       0.00954603
Li       1.79927888       3.67808024       1.25422672
O        0.38424289       4.91518289       4.16078976
O        2.73797493       4.91672692       5.94501213
