12
Lattice="4.429149150848389 0.0 -0.003694052342325449 -2.2012891966601704 8.81619002071857 -3.176184892654419 0.0 0.0 13.050993919372559" Properties=species:S:1:pos:R:3 pbc="T T T"
Cs       0.44239097       5.56934260       0.57522010
Cs       2.67005425       6.70410254       7.56828511
Te       2.64798043       3.20852584       2.88870428
Te       2.66131690       3.66600754      10.86203670
Dy       2.65700033       1.73712283       5.64128723
Te       0.44014702       1.73460470      12.19170437
Dy       0.44860885       2.15381027       9.13692106
Te       0.44819524       8.57042974      -2.69983126
Dy       0.43368881       1.28075753       2.15979235
Te      -1.76429441       8.57538507       1.54902308
Te       2.66535924       0.24028270       8.40693591
Te       0.44511739       3.70015046       6.59186468
14
Lattice="5.348783493041992 0.0 -0.0029084403067827225 0.001397480590802607 7.0230797330932 -4.067967414855957 0.0 0.0 8.13236141204834" Properties=species:S:1:pos:R:3 pbc="T T T"
Li       2.38742460       1.92815278       3.09048599
Cd       5.05910001       6.51258037       3.06488268
Cd       2.38419785       5.92141521      -1.58202412
Cd       2.38516329       2.90965185       5.95415929
Li       5.05817604       4.53040202       5.29685871
Cd       5.05884318       5.53113718       0.08742616
Cd       2.38280635       3.84394908       0.75106599
Hg       2.38530131       4.80494996       3.64954515
Hg       5.06176692       3.46864362       2.53381761
Cd       2.38546727       0.86923563       0.23793871
Hg       2.38494992       6.98441457       1.26512236
Cd       5.06011026       0.48475679       1.86696205
Cd       5.05728601       2.58259412      -0.48045137
Cd       5.05901783       1.57018931       4.82052908
16
Lattice="5.064254283905029 0.0 0.007859435863792896 0.5306459091754192 6.293270484103971 -0.03721247985959053 0.0 0.0 9.109376907348633" Properties=species:S:1:pos:R:3 pbc="T T T"
Mn       1.17696071       4.41295085       0.89325619
Zr       3.43188744       1.27469083       3.61035558
Zr       0.89539447       2.87472272       7.93663974
Zr       2.49232308       3.63854645       5.45581759
Mn       5.00548568       2.04684496       5.45771319
Zr       1.49176835       5.92324955       7.92134357
Zr       4.92730741       5.19718571       5.45066764
Zr       3.94868566       5.93875352       0.89071199
Zr       1.47609301       5.95160885       2.97376598
Zr       3.47370594       2.88747658       0.90349579
Zr       0.85447780       2.91169788       2.97613286
Mn       0.91450032       1.26750967       0.91384363
Mn       1.88019965       0.49337928       5.48991799
Zr       3.46210150       1.26091639       7.33117957
Mn       3.72662364       4.39765694       7.74185356
Mn       3.69596710       4.42731561       3.16902300
12
Lattice="7.500028133392334 0.0 -1.1503746509552002 -3.9587981607074596 6.371552388949569 -1.1409730911254883 0.0 0.0 8.426605224609375" Properties=species:S:1:pos:R:3 pbc="T T T"
Y        7.01134330       0.42248133       7.09062101
Mn      -0.59576680       4.65206963       7.09522157
Tl      -2.63318665       5.78252957       2.88413329
Te       4.33454333       4.23029173       4.74131829
Tl       1.44656845       3.51728140       2.88161668
Te       1.97683257       5.07347952      -0.12512188
Tl       5.13443200       1.46732053       2.87782191
Te      -1.45711220       3.09832200       1.06598913
Te       2.36511774       0.68727902       1.01838810
Y        3.25646522       2.51102298       7.09102697
Te       0.27043342       6.20614633       4.69888342
Te       0.40468343       2.24371327       5.88985975
4
Lattice="4.475508689880371 0.0 2.5748605728149414 1.4928755022298075 4.221354851891147 2.5774283409118652 0.0 0.0 5.165915012359619" Properties=species:S:1:pos:R:3 pbc="T T T"
Li       2.27425987       1.88615932       3.45597281
Sm       5.25806839       3.99750440       8.61502475
Tl       3.76642255       2.94111545       6.03717180
Hg       0.78115923       0.83057490       0.87576193
4
Lattice="3.9827804565429688 0.0 2.2914650440216064 1.3297436522483397 3.7545126877290973 2.286674976348877 0.0 0.0 4.59226655960083" Properties=species:S:1:pos:R:3 pbc="T T T"
Pt       2.08183336       0.11281113       2.96897011
Sn       3.41033169       1.05096760       5.26147695
Ag       2.08342802       2.92860371       2.96342491
Pd       0.75466609       1.98920459       5.26140641
4
Lattice="3.3412859439849854 0.0 -0.012222016230225563 -1.6810768338708475 2.8265691187570248 -0.6464744806289673 0.0 0.0 8.75815200805664" Properties=species:S:1:pos:R:3 pbc="T T T"
Li      -0.90681208       2.01182127       6.47703098
Hg       0.76247063       2.31716885       3.43876628
Tl       2.43229718       0.62255057       0.36106049
O        0.76236881       1.21328197       7.33993652
18
Lattice="4.364760875701904 0.0 0.013413180597126484 -2.140119130099833 9.946162319743296 -0.31061431765556335 0.0 0.0 13.845880508422852" Properties=species:S:1:pos:R:3 pbc="T T T"
Ba       3.76165414       0.04984407      10.70955943
Mn       1.59351721       3.71134784       9.13212110
Te       1.60372939       6.26470802       5.53863405
Ba      -0.58032702       5.07022114      12.55488041
Ba       1.62148166       9.86649978       5.41899933
Sc      -0.58018439       6.28020835       7.59900337
Te      -0.59467205       3.00220840       3.85005621
Te      -0.59448822       3.23775547       7.70141735
Mn       1.58427890       2.00127584       2.43611244
Mn      -0.58520263       5.86467967       3.40169735
Te      -0.56635271       8.53029451      12.71593100
Te       1.60763312       6.28296030       9.71191990
Sc       1.61868773       8.68710180       0.80693502
Te       1.59061253       2.61575870      11.48343595
Te       1.60036635       5.83162068       1.45687245
Te      -0.56638663       9.10367684       2.83376614
Te      -0.56584559       9.16509836       7.87484212
Te       3.76716069       1.76784179       0.75465754
4
Lattice="4.407254695892334 0.0 2.54541277885437 1.4716889834284077 4.157533640007784 2.543256998062134 0.0 0.0 5.091463088989258" Properties=species:S:1:pos:R:3 pbc="T T T"
Zn       4.27647390       1.28100507       7.47291056
Pr       1.33918969       2.32112236       2.38107794
Er       2.80656477       0.24244734       4.92749875
Pd       2.80820223       3.36007037       4.92715246
5
Lattice="3.2707977294921875 0.0 -1.1114968061447144 -0.37600822950789625 3.2476201825446607 -1.1072896718978882 0.0 0.0 5.381378650665283" Properties=species:S:1:pos:R:3 pbc="T T T"
Tm       2.62371083       2.17256837       2.63891666
Mn       0.26450470       1.36371056       1.05996180
C        1.63061017       1.05879408      -0.29457592
Mn       1.71371204       2.98656846      -0.04884138
C        0.72438590       0.04473348       2.41528221
10
Lattice="4.3443098068237305 0.0 0.0014804351376369596 -0.003115513174073253 8.614066514231386 0.7030767798423767 0.0 0.0 8.410255432128906" Properties=species:S:1:pos:R:3 pbc="T T T"
K        1.97494730       1.58665948       5.90956450
Sn       1.97377126       6.65035316       4.02070635
K        4.14300419       5.86054118       8.02044892
Sn       4.14900693       0.79030309       1.49273775
Cl       4.14658270       5.38243301       2.80310242
Cl       1.97369911       4.88170789       5.88645885
Cl       1.97375188       8.02127573       9.02868939
Cl       4.14476070       8.03669633       5.60752686
Cl       1.97651038       2.05208752       2.71148523
Cl       4.14678493       2.55802571       8.04274245
12
Lattice="3.7473514080047607 0.0 0.017929937690496445 -0.002084644549080835 5.393622949191444 -0.7888376116752625 0.0 0.0 6.438802242279053" Properties=species:S:1:pos:R:3 pbc="T T T"
B        0.82416383       0.73715413       0.99295484
C        0.82054566       3.92131915       4.85299098
C        0.82062922       3.56829682       0.74247826
Yb       2.69572569       2.36373600       2.32771170
Yb       2.69924060       0.36733268       5.37451029
C        0.82359766       4.23173476       2.02586484
B        0.82584156       0.43153680       2.76160473
B        0.82452202       2.33743724       5.05719880
B        0.82325285       4.05171764       3.43104622
C        0.82636522       1.39375762       3.87833348
C        0.82367535       2.11615173       0.23737198
C        0.81982023       4.62667970      -0.33672618
12
Lattice="6.945200443267822 0.0 0.014937276020646095 0.05697536616297198 7.055339600324668 -1.8189562559127808 0.0 0.0 7.473687648773193" Properties=species:S:1:pos:R:3 pbc="T T T"
Pd       4.38243034       3.79880717       3.20239340
K        6.10007371       1.35569725       5.05818473
Bi       2.63855635       2.52602843       1.32746050
K        2.66751818       6.23580036       1.35972818
Bi       6.12637404       5.07457967       1.34870115
Bi       6.13086455       5.06496969       5.08531725
Bi       2.63709854       2.53414973       5.06329110
K        6.10059498       1.36155220       1.31593383
Pd       0.91019959       3.79906495       3.19468803
K        2.66584784       6.24925819       5.09035205
Pd       4.38163374       3.80181649      -0.52797330
Pd       0.90998449       3.80045607      -0.53756368
8
Lattice="4.531418800354004 0.0 -1.679298758506775 -0.6206852167434959 4.490156715346527 -1.6760960817337036 0.0 0.0 6.885707855224609" Properties=species:S:1:pos:R:3 pbc="T T T"
Li       4.44637357       0.08255884      -0.83223878
Li       1.00234731       1.33398505       3.74448114
Li       1.86918361       2.32636555      -0.83028876
Li       3.69726818       1.82755590       4.05406454
Tl       0.18547789       2.99490908       1.56315440
Li       2.95694125       3.57913259       2.06631719
Tl       2.68667669       0.66355590       1.34752512
Rh       1.12498539       4.07531649       4.06506501
5
Lattice="3.525374412536621 0.0 -0.0015210657147690654 -0.0004823805479671116 4.592218850549655 -0.001012408290989697 0.0 0.0 4.594236850738525" Properties=species:S:1:pos:R:3 pbc="T T T"
Sc       1.19617736       4.08542885       3.78080821
Sc       1.19633486       1.78791416       1.48520502
Ga       2.95883809       1.78992858       3.77955107
H        1.19583326       4.08754687       1.48362731
Rh       2.95872536       4.08335653       1.48350305
3
Lattice="4.098426818847656 0.0 -0.0019114672904834151 -2.049296640197269 3.3736796788590975 -2.0479609966278076 0.0 0.0 4.111473083496094" Properties=species:S:1:pos:R:3 pbc="T T T"
Sr       2.83477341       1.55986186       0.21730693
C        0.78732690       2.18408249       2.26693654
C        0.78745064       0.93606250       2.27815225
