12
Lattice="4.462816254426635 0.1542723684427739 -0.2687248425758115 -1.72081518073416 8.441857332829365 -3.089341546221174 -0.7804196627409045 0.15997248192360727 13.679069819346955" Properties=species:S:1:pos:R:3:forces:R:3 structure_index=0 total_energy=-51.36809158325195 stress="-0.0014831949956715107 0.0008232356631197035 -1.3189404853619635e-05 0.0008234601700678468 -0.002463843673467636 0.0011527205351740122 -1.2952142242284026e-05 0.00115257001016289 -0.0027500567957758904" pbc="T T T"
Cs       0.68293974       5.41471379       0.42359194       0.00365659       0.00595232       0.00149536
Cs       2.39035217       6.69877292       8.06899745      -0.00307800      -0.00597319      -0.00266829
Te       2.27441458       3.15662703       2.98076455      -0.04405039       0.00466606      -0.00104841
Te       2.61336587       3.95854625      10.91176141       0.03705682       0.00963290      -0.00673782
Dy       2.39784036       1.83671884       5.78945398       0.00009033      -0.00067628       0.00039507
Te      -0.22332552       1.83767951      12.76362886       0.00027950       0.00024324       0.00008088
Dy       0.32398481       2.38650874       9.52313296       0.04783482      -0.00912065       0.01068092
Te       0.46275585       8.15218640      -2.41988423      -0.03762487      -0.00845228       0.00614513
Dy       0.00955483       1.12973717       2.32433041      -0.04799310       0.00957474      -0.01016119
Te      -1.53983837       8.22849849       1.90049179      -0.00442108       0.00608921      -0.00710598
Te       2.52208309       0.51473427       8.59768482       0.04379970      -0.00476277       0.00185345
Te       0.15188016       3.73225460       6.85889844       0.00444982      -0.00717327       0.00707085
12
Lattice="4.4628241901126655 0.15427309108575257 -0.26872821235643013 -1.7208152787408246 8.441874096920687 -3.0893521985672754 -0.7804295829269462 0.15995823469434933 13.67908091902262" Properties=species:S:1:pos:R:3:forces:R:3 structure_index=1 total_energy=-51.36809539794922 stress="-0.001346440752968192 0.0008062722044996917 -2.924434193118941e-05 0.0008061759290285408 -0.0023448728024959564 0.0011137166293337941 -2.9330485631362535e-05 0.0011136401444673538 -0.0026136215310543776" pbc="T T T"
Cs       0.68294290       5.41472387       0.42358574       0.00365264       0.00594805       0.00150058
Cs       2.39034964       6.69877456       8.06899451      -0.00307620      -0.00596981      -0.00267601
Te       2.27441034       3.15662907       2.98076301      -0.04404272       0.00463559      -0.00104061
Te       2.61336773       3.95854191      10.91176296       0.03707464       0.00960693      -0.00674480
Dy       2.39784088       1.83671489       5.78945618       0.00008937      -0.00067410       0.00038169
Te      -0.22333175       1.83767348      12.76363968       0.00027223       0.00023766       0.00007998
Dy       0.32398816       2.38649997       9.52313757       0.04782070      -0.00911186       0.01068059
Te       0.46275193       8.15220082      -2.41989492      -0.03762309      -0.00843494       0.00615091
Dy       0.00954571       1.12973677       2.32432840      -0.04798570       0.00958683      -0.01015504
Te      -1.53984110       8.22851065       1.90048248      -0.00442340       0.00611418      -0.00711931
Te       2.52208987       0.51472405       8.59768850       0.04378961      -0.00473656       0.00185031
Te       0.15187701       3.73225244       6.85890112       0.00445193      -0.00720206       0.00709163
