4
Lattice="3.1609244346618652 0.0 0.4995030462741852 1.5403910929231301 2.7616766209195722 0.5002544522285461 0.0 0.0 10.274792671203613" Properties=species:S:1:pos:R:3 pbc="T T T"
Hf       3.40445989       0.47837460       6.21641608
Cd       2.59590489       1.85946592       1.08264878
Hf       3.76551581       2.54649166       3.94981440
Hf       1.42747414       1.17309243       8.48959869
4
Lattice="3.5761148929595947 0.0 0.001942094648256898 0.0010736878106799388 3.5807643711172497 0.003396372776478529 0.0 0.0 3.6165874004364014" Properties=species:S:1:pos:R:3 pbc="T T T"
Ni       1.75612293       3.30080821       1.58001511
Ni       3.54373803       1.51066741       1.57956967
Co       3.54408765       3.30078836       3.38859095
Ga       1.75559712       1.51061053       3.38576461
20
Lattice="3.98750376701355 0.0 0.0011568214977160096 -1.9928735774823565 3.4546846508467106 -0.0037418899592012167 0.0 0.0 17.187192916870117" Properties=species:S:1:pos:R:3 pbc="T T T"
Ge       0.85656185       2.19710523      17.13957352
Co       2.84953925       1.04714989       0.77552343
Fe       2.84884121       1.04670161      15.44212992
Co      -1.13864394       3.35001257      16.33275840
Co       2.84170450       1.04803048      10.68086424
Fe       2.85200562       1.04491385       5.76802439
Co       0.85668911       2.19844574       7.39415578
Co      -1.13682546       3.34947864       6.56995306
Co      -1.13365888       3.34711535       4.06115386
Co       0.85477057       2.19690282      14.70870209
Fe      -1.13928615       3.35089327       9.02243059
Co       2.84660962       1.04807084       8.22430115
Co       0.85019553       2.20182110       9.82402615
Co       0.86071970       2.19610119       5.00933694
Ge       2.85209090       1.04593036       3.25428264
Co      -1.14293263       3.35194200      11.47539164
Co       0.85837569       2.19675518       2.42160207
Co       2.84392908       1.04736435      13.14563622
Co      -1.13585071       3.35036057       1.61868496
Ge       0.85039211       2.20002264      12.32352391
4
Lattice="4.5732340812683105 0.0 1.2987383604049683 2.1022973821865785 4.062053771171625 1.3016566038131714 0.0 0.0 8.71122932434082" Properties=species:S:1:pos:R:3 pbc="T T T"
K        4.98919168       2.07469153      10.20317706
K        1.56571913       2.77491913       4.85641505
Pt       3.21528499       3.77746380       7.75017093
Cd       3.33898687       1.06983972       7.31146786
4
Lattice="3.517918109893799 0.0 0.0014420546358451247 0.0015980566967105652 3.5174292272065335 0.0004887620452791452 0.0 0.0 9.86657428741455" Properties=species:S:1:pos:R:3 pbc="T T T"
Lu       3.42835315       1.32366273       3.30281953
Y        1.67058103       3.08281333       5.82483764
Lu       3.42807927       1.32450398       8.35248659
Ce       1.67113844       3.08341965       0.89426545
4
Lattice="4.4752726554870605 0.0 2.5831892490386963 1.4895541605739029 4.216891219553732 2.584071636199951 0.0 0.0 5.166013240814209" Properties=species:S:1:pos:R:3 pbc="T T T"
Sc       3.73006869       3.23926846       3.72225238
Dy       0.75049660       1.13069190       3.72381421
Ag       3.73247722       0.07427650       3.72194897
Pb       2.23962916       2.18519445       6.30624205
14
Lattice="8.005302429199219 0.0 1.5301882028579712 1.9639988568520999 7.970919051581938 2.3206567764282227 0.0 0.0 8.132899284362793" Properties=species:S:1:pos:R:3 pbc="T T T"
Cs       7.90038966       3.74437024       9.58964033
Br       2.67872795       5.83864845       6.39752740
Cl       5.50300529       2.93042146       6.82458115
Sn       4.83114451       7.94862481       5.87814822
Sn       3.94153306       3.91180513       4.71744827
Sn       8.92653767       7.15549840       5.11906061
Cl       6.18551738       6.14524434       4.06674846
Sn       4.46339622       0.72506196       7.94764502
Br       6.61480662       6.89253415       8.07090188
Cl       4.93351452       1.80596040       2.71415388
Cl       2.04777784       4.97346971       2.68245778
Cl       1.19765435       0.78533132       1.42115257
Cl       2.17882700       2.08969845       5.48586186
Cl       6.99403770       0.09307148       8.41522382
4
Lattice="4.5571208000183105 0.0 2.6301796436309814 1.5183555683130119 4.29634729298775 2.6311962604522705 0.0 0.0 5.262350559234619" Properties=species:S:1:pos:R:3 pbc="T T T"
Y        2.51744422       0.86794349       3.51854760
Sm       5.55523213       3.01562411       8.78023439
Al       4.03678213       1.94224280       6.14984788
Hg       2.51704987       4.08979468       3.51933647
6
Lattice="6.898046493530273 0.0 -1.8177238702774048 -3.7795051878670165 5.581365519277161 -2.540275812149048 0.0 0.0 7.020414352416992" Properties=species:S:1:pos:R:3 pbc="T T T"
Br      -2.13409647       3.33906607       2.82893184
Na       2.97448062       3.41480759       3.28686989
Br       1.19643772       3.48950318      -1.45789020
I        4.87359111       0.62024380       1.04903881
Br      -0.35471393       0.71555823       0.71293443
Br       3.19506859       0.53528023       3.20131711
5
Lattice="3.8787901401519775 0.0 -1.3844417333602905 -0.48907353012145915 3.848664484132524 -1.3871402740478516 0.0 0.0 6.0977783203125" Properties=species:S:1:pos:R:3 pbc="T T T"
Sr       3.57245446       0.96288987      -1.01308313
Co       0.78474524       0.00320343       3.42105631
Ge       1.87335993       3.43759515       0.33532035
Fe       2.48307306       1.92473942       2.03536550
Ge       0.90342107       2.33655613       3.73483494
4
Lattice="4.944632530212402 0.0 -0.0003079070302192122 -0.00020310301244450303 5.005193229369187 -0.00028840822051279247 0.0 0.0 5.013907432556152" Properties=species:S:1:pos:R:3 pbc="T T T"
Na       2.81557130       3.78602655       3.42604946
Bi       0.34310408       3.78819006       0.91907064
Pb       2.81446144       1.28572994       0.91892878
Bi       0.34339007       1.28067782       3.42641979
5
Lattice="2.6852855682373047 0.0 -0.3891434371471405 -0.05654911361887403 2.6847229806962614 -0.3894384205341339 0.0 0.0 9.489628791809082" Properties=species:S:1:pos:R:3 pbc="T T T"
Rh       0.99078645       1.42850851       5.87454479
Rh       1.48758035       1.93702422      -0.17257576
Ni       2.60963954       0.34025669       7.59433232
Rh       0.44496173       0.87167130       2.09867442
Rh       2.03256313       2.49310773       3.60273190
8
Lattice="4.17763090133667 0.0 -0.0035873667802661657 -0.003603970625977982 4.175991410546354 -0.0018421062268316746 0.0 0.0 8.174711227416992" Properties=species:S:1:pos:R:3 pbc="T T T"
Zn       2.02700533       2.70934869       2.74423805
Mg       4.11565173       0.62383915       2.74036090
Ga       4.11440477       2.71126131       0.69753669
Ga       2.02541287       0.62206760       0.69965098
Ga       4.11519859       2.71358462       4.78716258
Mg       4.11547101       0.62319541       6.83067091
Zn       2.02402994       2.71138725       6.82931645
Ga       2.02668041       0.62209872       4.78921408
20
Lattice="7.154348850250244 0.0 0.27117156982421875 -0.004931246560452795 9.0530477444855 -1.615679383277893 0.0 0.0 11.688261032104492" Properties=species:S:1:pos:R:3 pbc="T T T"
Li       1.11954721       7.45356958       1.87808746
Cs       4.58513666       2.79233985       4.14608426
Cs       4.76420357       0.40803520      10.78272599
Br       5.89107587       3.65556331       0.55023781
Li       3.57860442       3.95395255       8.55553848
Br       2.30336191       4.97907330       1.83357981
Br       0.02364317       8.26693851       6.62161276
Br       5.86768647       3.01205299       7.97783682
Er       4.66972548       6.12112510       0.81927679
Li       5.77767844       8.30126540       4.77843773
Br       2.18117401       3.98499487       6.43051963
Br       1.91865318       2.45306376       9.89559518
Br       7.03076323       7.25788878      -0.18669129
Br       0.28861571       0.73924539       4.76423523
Br       5.87414377       6.25735345       3.38766065
Li       1.07187351       4.78056282      -0.51210523
Br       3.44689167       8.58957026       1.08597704
Br       3.49297623       0.17646968       6.95926518
Er       1.10371964       1.59869628       7.33370588
Br       3.46962189       5.99811326       9.93693293
11
Lattice="5.298128128051758 0.0 0.5076346397399902 -3.376214749058591 6.012530015170202 -2.566551923751831 0.0 0.0 6.858136177062988" Properties=species:S:1:pos:R:3 pbc="T T T"
Cd       2.60269880       4.62998487       3.51463359
Cd       2.23727899       0.31396223       0.66995840
Cd       0.96017952       0.87411876       3.51840427
Cd       3.73555343       1.92588458       2.79756719
Cd      -1.35373501       4.14420221       0.16949503
Ag      -0.10810627       3.59991810       4.26201379
Ag       2.43308791       2.50725796       5.54759606
Ag       1.16662325       3.05320063       1.44511564
Cd      -0.31680018       1.43147682       6.27378972
Ag       0.10341779       5.75135476       2.22609894
Ag       1.39468889       5.21150053      -0.56673102
8
Lattice="3.8245534896850586 0.0 0.0012084828922525048 0.004969861496229708 3.8236344940751987 0.0004966691485606134 0.0 0.0 16.27555274963379" Properties=species:S:1:pos:R:3 pbc="T T T"
Tl       3.44980363       0.05071541      15.70819977
Tl       1.53993598       1.96118541       5.59812422
Hg       1.54053054       1.96340682       1.40098488
Tl       1.54046125       1.96376782      13.47625180
Hg       3.45057290       0.05046723       7.56734597
Hg       3.45033260       0.05219425      11.51279266
Tl       3.45358877       0.05305104       3.35958122
Tl       1.54127667       1.96263102       9.54886618
